* ENCODING=ISO-8859-1
NAME          CPLEX
ROWS
 N  obj1    
 G  c1      
 G  c2      
 G  c3      
 G  c4      
 G  c5      
 G  c6      
 G  c7      
 G  c8      
 G  c9      
 G  c10     
 G  c11     
 G  c12     
 G  c13     
 G  c14     
 G  c15     
 G  c16     
 G  c17     
 G  c18     
 G  c19     
 G  c20     
 G  c21     
 G  c22     
 G  c23     
 G  c24     
 G  c25     
 G  c26     
 G  c27     
 G  c28     
 G  c29     
 G  c30     
 G  c31     
 G  c32     
 G  c33     
 G  c34     
 G  c35     
 G  c36     
 G  c37     
 G  c38     
 G  c39     
 G  c40     
 G  c41     
 G  c42     
 G  c43     
 G  c44     
 G  c45     
 G  c46     
 G  c47     
 G  c48     
 G  c49     
 G  c50     
COLUMNS
    MARK0000  'MARKER'                 'INTORG'
    x1        obj1                            1
    x1        c6                            380
    x1        c11                           278
    x1        c19                           443
    x1        c22                           653
    x1        c25                           276
    x1        c26                           602
    x1        c36                           130
    x1        c47                           440
    x1        c50                           954
    x2        obj1                            1
    x2        c6                            339
    x2        c11                           852
    x2        c17                           303
    x2        c18                           500
    x2        c21                           373
    x2        c24                           197
    x2        c27                           932
    x2        c29                           343
    x2        c41                           434
    x2        c49                           761
    x3        obj1                            1
    x3        c22                           583
    x3        c26                           903
    x3        c48                           942
    x4        obj1                            1
    x4        c1                            536
    x4        c2                            398
    x4        c34                           617
    x4        c42                           536
    x4        c43                           720
    x4        c44                           278
    x5        obj1                            1
    x5        c7                            318
    x5        c14                           633
    x5        c16                           613
    x5        c27                           809
    x5        c29                           250
    x6        obj1                            1
    x6        c4                            461
    x6        c21                           496
    x6        c28                           910
    x6        c33                           636
    x6        c40                           609
    x7        obj1                            1
    x7        c21                           901
    x7        c31                           785
    x7        c36                           109
    x7        c40                           826
    x7        c43                           403
    x8        obj1                            1
    x8        c1                            384
    x8        c4                            277
    x8        c9                            143
    x8        c38                           306
    x8        c43                           613
    x9        obj1                            1
    x9        c3                            491
    x9        c11                           581
    x9        c20                           272
    x9        c31                           337
    x9        c44                           984
    x10       obj1                            1
    x10       c31                           951
    x10       c32                           105
    x10       c34                           932
    x10       c45                           227
    x11       obj1                            1
    x11       c8                            642
    x11       c9                            761
    x11       c23                           942
    x11       c37                           115
    x11       c39                           662
    x12       obj1                            1
    x12       c4                            112
    x12       c5                            125
    x12       c19                           613
    x12       c30                           943
    x13       obj1                            1
    x13       c13                           789
    x13       c16                           265
    x13       c22                           950
    x13       c29                           893
    x13       c32                           174
    x14       obj1                            1
    x14       c1                            325
    x14       c18                           129
    x14       c24                           570
    x15       obj1                            1
    x15       c6                            856
    x15       c12                           947
    x15       c27                           268
    x15       c28                           888
    x15       c34                           651
    x15       c39                           983
    x15       c42                           462
    x15       c43                           855
    x15       c46                           699
    x15       c49                           686
    x16       obj1                            1
    x16       c25                           623
    x16       c34                           431
    x17       obj1                            1
    x17       c1                            898
    x17       c4                            167
    x17       c14                           965
    x17       c15                           675
    x17       c17                           888
    x17       c23                           464
    x17       c48                           262
    x18       obj1                            1
    x18       c1                            840
    x18       c11                           664
    x18       c12                           444
    x18       c21                           107
    x18       c26                           637
    x18       c28                           283
    x18       c47                           233
    x19       obj1                            1
    x19       c3                            747
    x19       c4                            258
    x19       c5                            233
    x19       c12                           756
    x19       c26                           868
    x19       c33                           818
    x19       c40                           817
    x19       c43                           569
    x19       c50                           120
    x20       obj1                            1
    x20       c2                            140
    x20       c20                           420
    x20       c34                           724
    x20       c39                           773
    x21       obj1                            1
    x21       c3                            840
    x21       c30                           178
    x21       c45                           812
    x22       obj1                            1
    x22       c32                           555
    x22       c38                           459
    x22       c47                           533
    x22       c50                           979
    x23       obj1                            1
    x23       c11                           998
    x23       c26                           903
    x24       obj1                            1
    x24       c8                            266
    x24       c10                           120
    x24       c21                           983
    x24       c24                           950
    x24       c28                           553
    x24       c32                           331
    x24       c37                           915
    x24       c47                           829
    x25       obj1                            1
    x25       c28                           299
    x25       c36                           819
    x25       c39                           784
    x25       c46                           133
    x26       obj1                            1
    x26       c3                            568
    x26       c8                            709
    x26       c10                           183
    x26       c26                           157
    x26       c40                           435
    x27       obj1                            1
    x27       c11                           167
    x27       c15                           447
    x27       c22                           109
    x27       c29                           478
    x27       c33                           109
    x27       c37                           698
    x27       c48                           268
    x28       obj1                            1
    x28       c26                           201
    x28       c39                           278
    x29       obj1                            1
    x29       c7                            208
    x29       c13                           935
    x29       c15                           973
    x29       c25                           820
    x29       c31                           374
    x29       c36                           739
    x29       c50                           274
    x30       obj1                            1
    x30       c4                            795
    x30       c8                            491
    x30       c23                           897
    x30       c25                           207
    x30       c32                           734
    x31       obj1                            1
    x31       c7                            727
    x31       c12                           217
    x31       c15                           807
    x31       c22                           464
    x31       c33                           373
    x31       c35                           376
    x31       c38                           947
    x31       c46                           150
    x32       obj1                            1
    x32       c5                            505
    x32       c15                           189
    x32       c20                           674
    x32       c43                           111
    x32       c44                           388
    x33       obj1                            1
    x33       c17                           630
    x33       c30                           791
    x33       c41                           268
    x33       c42                           781
    x33       c48                           732
    x34       obj1                            1
    x34       c2                            246
    x34       c7                            635
    x34       c19                           717
    x34       c24                           307
    x34       c43                           989
    x34       c47                           931
    x34       c50                           195
    x35       obj1                            1
    x35       c1                            707
    x35       c12                           854
    x35       c40                           873
    x36       obj1                            1
    x36       c7                            962
    x36       c9                            828
    x36       c14                           585
    x36       c49                           233
    x37       obj1                            1
    x37       c1                            619
    x37       c8                            115
    x37       c9                            872
    x38       obj1                            1
    x38       c3                            477
    x38       c9                            592
    x38       c22                           166
    x38       c28                           361
    x38       c30                           370
    x38       c45                           476
    x39       obj1                            1
    x39       c6                            637
    x39       c25                           258
    x40       obj1                            1
    x40       c10                           185
    x40       c16                           581
    x40       c17                           909
    x40       c30                           102
    x41       obj1                            1
    x41       c7                            900
    x41       c10                           984
    x41       c16                           372
    x41       c35                           621
    x42       obj1                            1
    x42       c6                            234
    x42       c14                           696
    x42       c19                           185
    x42       c30                           213
    x42       c35                           658
    x43       obj1                            1
    x43       c13                           222
    x43       c23                           584
    x43       c33                           589
    x43       c34                           448
    x43       c38                           992
    x43       c39                           430
    x43       c50                           675
    x44       obj1                            1
    x44       c9                            436
    x44       c13                           967
    x44       c32                           453
    x44       c42                           829
    x45       obj1                            1
    x45       c3                            534
    x45       c5                            774
    x45       c9                            539
    x45       c11                           329
    x45       c12                           163
    x45       c25                           477
    x45       c30                           491
    x45       c48                           950
    x45       c49                           895
    x46       obj1                            1
    x46       c4                            268
    x46       c8                            368
    x46       c45                           847
    x47       obj1                            1
    x47       c2                            729
    x47       c36                           776
    x47       c38                           378
    x47       c45                           686
    x48       obj1                            1
    x48       c13                           108
    x48       c21                           866
    x48       c23                           346
    x49       obj1                            1
    x49       c22                           338
    x49       c23                           961
    x49       c24                           421
    x49       c27                           810
    x49       c33                           953
    x49       c36                           765
    x49       c38                           672
    x49       c48                           754
    x49       c50                           318
    x50       obj1                            1
    x50       c7                            582
    x50       c12                           707
    x50       c14                           752
    x50       c17                           254
    x50       c18                           567
    x50       c29                           381
    x50       c33                           588
    x50       c41                           161
    x50       c44                           807
    x50       c45                           726
    MARK0001  'MARKER'                 'INTEND'
RHS
    rhs       c1                           2155
    rhs       c2                            757
    rhs       c3                           1829
    rhs       c4                           1169
    rhs       c5                            819
    rhs       c6                           1223
    rhs       c7                           2166
    rhs       c8                           1296
    rhs       c9                           2086
    rhs       c10                           736
    rhs       c11                          1935
    rhs       c12                          2044
    rhs       c13                          1511
    rhs       c14                          1816
    rhs       c15                          1546
    rhs       c16                           916
    rhs       c17                          1492
    rhs       c18                           598
    rhs       c19                           979
    rhs       c20                           683
    rhs       c21                          1863
    rhs       c22                          1632
    rhs       c23                          2097
    rhs       c24                          1223
    rhs       c25                          1331
    rhs       c26                          2136
    rhs       c27                          1410
    rhs       c28                          1647
    rhs       c29                          1173
    rhs       c30                          1544
    rhs       c31                          1224
    rhs       c32                          1176
    rhs       c33                          2033
    rhs       c34                          1902
    rhs       c35                           828
    rhs       c36                          1669
    rhs       c37                           864
    rhs       c38                          1877
    rhs       c39                          1955
    rhs       c40                          1780
    rhs       c41                           432
    rhs       c42                          1304
    rhs       c43                          2130
    rhs       c44                          1229
    rhs       c45                          1887
    rhs       c46                           491
    rhs       c47                          1483
    rhs       c48                          1954
    rhs       c49                          1288
    rhs       c50                          1758
BOUNDS
 LI bnd       x1        0
 LI bnd       x2        0
 LI bnd       x3        0
 LI bnd       x4        0
 LI bnd       x5        0
 LI bnd       x6        0
 LI bnd       x7        0
 LI bnd       x8        0
 LI bnd       x9        0
 LI bnd       x10       0
 LI bnd       x11       0
 LI bnd       x12       0
 LI bnd       x13       0
 LI bnd       x14       0
 LI bnd       x15       0
 LI bnd       x16       0
 LI bnd       x17       0
 LI bnd       x18       0
 LI bnd       x19       0
 LI bnd       x20       0
 LI bnd       x21       0
 LI bnd       x22       0
 LI bnd       x23       0
 LI bnd       x24       0
 LI bnd       x25       0
 LI bnd       x26       0
 LI bnd       x27       0
 LI bnd       x28       0
 LI bnd       x29       0
 LI bnd       x30       0
 LI bnd       x31       0
 LI bnd       x32       0
 LI bnd       x33       0
 LI bnd       x34       0
 LI bnd       x35       0
 LI bnd       x36       0
 LI bnd       x37       0
 LI bnd       x38       0
 LI bnd       x39       0
 LI bnd       x40       0
 LI bnd       x41       0
 LI bnd       x42       0
 LI bnd       x43       0
 LI bnd       x44       0
 LI bnd       x45       0
 LI bnd       x46       0
 LI bnd       x47       0
 LI bnd       x48       0
 LI bnd       x49       0
 LI bnd       x50       0
ENDATA
